File: D:\ML4VRP2024\Instances\CVRP\json\X-n167-k10.json exists.
Route #1: 86 92 159 17 96 38 115 97 148 116 8 145 129 57 77 13 1 122 
Route #2: 44 30 55 131 4 151 153 109 16 29 2 136 114 163 88 111 
Route #3: 103 152 3 130 143 113 21 158 75 95 59 112 53 72 51 146 84 120 
Route #4: 5 46 140 15 52 14 85 156 125 43 117 147 49 64 107 104 12 
Route #5: 67 89 6 7 157 9 93 25 123 35 26 165 78 126 47 118 106 
Route #6: 121 79 149 160 32 28 10 37 
Route #7: 42 54 76 23 154 132 60 71 142 19 50 82 11 39 141 70 133 24 
Route #8: 99 63 124 87 144 80 18 139 27 108 102 100 40 31 135 150 45 101 
Route #9: 134 119 48 68 162 62 128 138 41 74 33 166 94 90 161 91 20 66 
Route #10: 137 73 22 69 83 155 56 58 61 127 105 36 110 34 164 65 81 98 
